17	4	3
13	12	11	11	20	30	33	
0	0	0	0	0	9	4	3	6	6	7	3	2	3	4
8	0	0	4	0	3	6	6	4	7	5	3	7	12	13
5	9	0	0	0	4	9	8	8	3	6	3	8	9	11
1	0	0	3	0	3	4	1	5	6	4	2	5	14
1	0	0	2	0	9	7	2	2	8	1	2	6	17
50	8	0	0	0	4	6	4	6	1	10	2	10	17
175	0	0	0	5	3	3	5	9	6	2	2	9	17
200	0	0	0	7	4	10	10	1	8	3	1	17
150	0	0	3	0	7	10	6	8	5	2	1	15
175	10	0	0	0	1	4	8	3	5	5	1	17
200	3	0	0	0	3	8	10	7	4	1	2	15	17
225	1	0	0	0	6	7	3	1	6	9	1	16
2	4	0	0	0	2	9	9	2	10	6	2	14	17
8	10	0	0	0	4	7	6	10	4	1	1	17
7	0	0	0	7	1	5	4	9	7	8	1	17
6	0	0	10	0	3	10	6	3	6	10	2	17	17
0	0	0	0	0	4	2	7	7	2	2	0
